50 8530

301
214
251
63
206
140
196
154
363
424
287
253
48
26
60
402
202
39
174
160
118
118
279
384
55
240
132
147
125
121
252
151
242
194
350
422
101
230
401
3
292
236
237
454
375
316
216
156
194
159
